% demand
num_movements = 28;
loading_factor = [1700, 1450, 1150, 1100, 900, 1700, 900, 1150, 950, 850, 1900, 1500, 1550, 1050, 1450, 1800, 1950, 1250, 1400, 1450, 1450, 1300, 1200, 1200, 2000, 1800, 1750, 1650];
pickup_time = [0, 0, 0, 0, 0, 0, 0, 0, 0, 2, 2, 2, 2, 3, 3, 3, 3, 3, 3, 4, 4, 4, 4, 4, 4, 4, 5, 5];
delivery_time = [1, 3, 3, 2, 3, 3, 1, 2, 1, 3, 3, 4, 3, 4, 4, 4, 4, 4, 4, 5, 5, 6, 5, 5, 5, 7, 7, 6];

% transporter definition
total_capacity = 11000;
num_decks = 4;
capacity = [3000, 3000, 1000, 4000];

% ways out of decks
num_ways_out = 2;
paths_out = array3d(decks, ways_out, decks, [
% ways out of deck d1
2, 4, 0, 0, 3, 4, 0, 0, 

% ways out of deck d2
4, 0, 0, 0, 0, 0, 0, 0,	

% ways out of deck d3
4, 0, 0, 0, 0, 0, 0, 0,	

% ways out of deck d4
0, 0, 0, 0,	0, 0, 0, 0,	

]);

